results/filo/x-long/X-n106-k14.vrp_seed-3.out
26383	1037
