results/filo/x-long/X-n106-k14.vrp_seed-3.vrp.sol
Route #1: 62 26 90 24 102 92 52
Route #2: 1 104 12 9 84 75 7
Route #3: 96 45 100 51 60 76 44 5
Route #4: 22 33
Route #5: 99 21 67 83 77 85 54 13
Route #6: 86 18 41 10 16 20 56
Route #7: 68 95 38 65 80 61 47 25
Route #8: 66 46 71 79 37 27 19 78
Route #9: 53 103 101 28 93 97 43 15
Route #10: 57 63 40 31 17 2 48 58 49
Route #11: 87 74 11 34 72 29 82
Route #12: 14 88 8 36 91 69 105 64 94
Route #13: 55 98 4 70 6 81 50 39
Route #14: 59 89 30 42 23 3 32 73 35
Cost 26383.000000